; benchmark generated from python API
(set-info :status unknown)
(declare-datatypes ((RealState 0)) (((RMk1 (rval1 Real)) (RMk2 (rval2 Real)))))
 (assert
 (forall ((|v11:0| Real) )(exists ((|v10:1_st| RealState) (val!2742 Real) )(forall ((|v9:2| Real) )(exists ((|v8:3_st| RealState) (val!2743 Real) )(forall ((|v7:4| Real) )(exists ((|v6:5_st| RealState) (val!2744 Real) )(forall ((|v5:6| Real) )(exists ((|v4:7_st| RealState) (val!2745 Real) )(forall ((|v3:8| Real) )(exists ((|v2:9_st| RealState) (val!2746 Real) )(forall ((|v1:10| Real) )(exists ((|v0:11_st| RealState) (val!2747 Real) )(let ((?x902 (+ (+ (+ (rval2 |v10:1_st|) (* (- 3.0) |v11:0|)) (* 15.0 |v1:10|)) (* (- 18.0) (rval2 |v0:11_st|)))))
 (let (($x1423 (not (= |v0:11_st| (RMk1 val!2747)))))
 (let (($x937 (not (= |v2:9_st| (RMk1 val!2746)))))
 (let (($x1151 (not (= |v6:5_st| (RMk1 val!2744)))))
 (and (not (= |v10:1_st| (RMk1 val!2742))) (not (= |v8:3_st| (RMk1 val!2743))) $x1151 (not (= |v4:7_st| (RMk1 val!2745))) $x937 $x1423 (<= ?x902 20.0)))))))
 )
 )
 )
 )
 )
 )
 )
 )
 )
 )
 )
 )
(check-sat)
